%nproc=1
%mem=1GB
%chk=TMP_CALCS/scangeom_S02_120_060.chk
#p hf 3-21g
   scf=tight NoSymmetry guess=read
   opt=(tight,modredundant)

Geometry optimization at the 2D-PES

0 1
 C     +0.744190    +0.629306    +0.052746
 C     +1.379322    -0.512401    +0.002264
 H     +1.227895    +1.584847    +0.102735
 H     +2.449321    -0.546260    -0.019150
 H     +0.839465    -1.436195    -0.035547
 O     -0.661068    +0.679159    -0.018149
 O     -1.162153    +1.302164    +1.214781
 H     -0.744700    +2.183439    +1.195270

 2  1  6  7 F
 1  6  7  8 F

