%nproc=1
%mem=1GB
%chk=TMP_CALCS/scangeom_S02_260_010.chk
#p hf 3-21g
   scf=tight NoSymmetry guess=read
   opt=(tight,modredundant)

Geometry optimization at the 2D-PES

0 1
 C     +0.741013    +0.631329    +0.034593
 C     +1.387520    -0.507459    -0.008962
 H     +1.210731    +1.592329    +0.081480
 H     +2.457826    -0.532387    +0.021369
 H     +0.858816    -1.438679    -0.047856
 O     -0.668893    +0.659547    +0.038181
 O     -1.155129    +0.962955    -1.326765
 H     -0.354923    +0.897464    -1.881299

 2  1  6  7 F
 1  6  7  8 F

