%nproc=1
%mem=1GB
%chk=TMP_CALCS/scangeom_S02_010_150.chk
#p hf 3-21g
   scf=tight NoSymmetry guess=read
   opt=(tight,modredundant)

Geometry optimization at the 2D-PES

0 1
 C     +0.733948    +0.570331    +0.046477
 C     +1.421633    -0.538487    -0.047364
 H     +1.166767    +1.548578    +0.091657
 H     +2.491095    -0.498826    -0.060754
 H     +0.945929    -1.492797    -0.100670
 O     -0.653528    +0.709606    +0.052370
 O     -1.275044    -0.607679    +0.174575
 H     -2.087578    -0.356461    +0.644499

 2  1  6  7 F
 1  6  7  8 F

