%nproc=1
%mem=1GB
%chk=TMP_CALCS/scangeom_S02_110_110.chk
#p hf 3-21g
   scf=tight NoSymmetry guess=read
   opt=(tight,modredundant)

Geometry optimization at the 2D-PES

0 1
 C     +0.734988    +0.628664    +0.047238
 C     +1.374062    -0.510993    +0.002344
 H     +1.209428    +1.585804    +0.120101
 H     +2.444464    -0.541544    -0.000435
 H     +0.838180    -1.436570    -0.048001
 O     -0.672192    +0.670946    -0.022326
 O     -1.154101    +1.073816    +1.307612
 H     -1.486695    +1.970830    +1.126166

 2  1  6  7 F
 1  6  7  8 F

