%nproc=1
%mem=1GB
%chk=TMP_CALCS/scangeom_S02_130_050.chk
#p hf 3-21g
   scf=tight NoSymmetry guess=read
   opt=(tight,modredundant)

Geometry optimization at the 2D-PES

0 1
 C     +0.757000    +0.627964    +0.060174
 C     +1.383182    -0.518792    +0.003392
 H     +1.254420    +1.578835    +0.087802
 H     +2.452431    -0.559238    -0.032520
 H     +0.836888    -1.439056    -0.026189
 O     -0.644028    +0.691717    -0.015443
 O     -1.172908    +1.513845    +1.084526
 H     -0.644064    +2.332815    +1.047675

 2  1  6  7 F
 1  6  7  8 F

