%nproc=1
%mem=1GB
%chk=TMP_CALCS/scangeom_S02_060_000.chk
#p hf 3-21g
   scf=tight NoSymmetry guess=read
   opt=(tight,modredundant)

Geometry optimization at the 2D-PES

0 1
 C     +0.750781    +0.605078    +0.038400
 C     +1.411566    -0.525904    -0.024782
 H     +1.213403    +1.569481    +0.069800
 H     +2.482100    -0.531954    -0.023015
 H     +0.902544    -1.467300    -0.088470
 O     -0.654250    +0.683450    +0.021950
 O     -1.246631    -0.049009    +1.159414
 H     -0.473604    -0.405458    +1.636880

 2  1  6  7 F
 1  6  7  8 F

