%nproc=1
%mem=1GB
%chk=TMP_CALCS/scangeom_S02_040_310.chk
#p hf 3-21g
   scf=tight NoSymmetry guess=read
   opt=(tight,modredundant)

Geometry optimization at the 2D-PES

0 1
 C     +0.744284    +0.584424    +0.058782
 C     +1.430702    -0.527544    -0.030300
 H     +1.199301    +1.551970    +0.093670
 H     +2.500223    -0.495425    -0.043759
 H     +0.980016    -1.498621    -0.085853
 O     -0.656886    +0.694579    +0.038786
 O     -1.303640    -0.375628    +0.801333
 H     -0.882634    -1.183375    +0.460710

 2  1  6  7 F
 1  6  7  8 F

