%nproc=1
%mem=1GB
%chk=TMP_CALCS/scangeom_S02_310_020.chk
#p hf 3-21g
   scf=tight NoSymmetry guess=read
   opt=(tight,modredundant)

Geometry optimization at the 2D-PES

0 1
 C     +0.739327    +0.594987    +0.019145
 C     +1.427212    -0.521408    +0.010483
 H     +1.190279    +1.562805    +0.084716
 H     +2.496117    -0.492825    +0.048962
 H     +0.970248    -1.492080    -0.007418
 O     -0.660573    +0.689508    -0.009831
 O     -1.268177    -0.117353    -1.077706
 H     -0.585610    -0.772155    -1.305625

 2  1  6  7 F
 1  6  7  8 F

