%nproc=1
%mem=1GB
%chk=TMP_CALCS/scangeom_S02_110_200.chk
#p hf 3-21g
   scf=tight NoSymmetry guess=read
   opt=(tight,modredundant)

Geometry optimization at the 2D-PES

0 1
 C     +0.724410    +0.628965    +0.045370
 C     +1.367646    -0.509267    +0.003960
 H     +1.189027    +1.588053    +0.131106
 H     +2.438161    -0.533781    +0.007975
 H     +0.839703    -1.439156    -0.053290
 O     -0.678556    +0.666698    -0.028529
 O     -1.132983    +1.073763    +1.318089
 H     -2.050538    +0.756001    +1.268946

 2  1  6  7 F
 1  6  7  8 F

