%nproc=1
%mem=1GB
%chk=TMP_CALCS/scangeom_S02_200_090.chk
#p hf 3-21g
   scf=tight NoSymmetry guess=read
   opt=(tight,modredundant)

Geometry optimization at the 2D-PES

0 1
 C     +0.732294    +0.638237    +0.023099
 C     +1.370629    -0.503863    -0.018860
 H     +1.191115    +1.600538    +0.088046
 H     +2.439973    -0.526702    +0.020172
 H     +0.846448    -1.435922    -0.077871
 O     -0.671709    +0.675087    +0.047913
 O     -1.079973    +2.009932    -0.386316
 H     -1.157054    +1.881859    -1.348307

 2  1  6  7 F
 1  6  7  8 F

