%nproc=1
%mem=1GB
%chk=TMP_CALCS/scangeom_S02_020_180.chk
#p hf 3-21g
   scf=tight NoSymmetry guess=read
   opt=(tight,modredundant)

Geometry optimization at the 2D-PES

0 1
 C     +0.731772    +0.575780    +0.050601
 C     +1.413920    -0.536699    -0.043821
 H     +1.169989    +1.551516    +0.093390
 H     +2.483642    -0.503970    -0.056414
 H     +0.933345    -1.489635    -0.081754
 O     -0.655304    +0.712357    +0.047833
 O     -1.259112    -0.575362    +0.399322
 H     -2.195332    -0.319187    +0.354521

 2  1  6  7 F
 1  6  7  8 F

