%nproc=1
%mem=1GB
%chk=TMP_CALCS/scangeom_S02_240_120.chk
#p hf 3-21g
   scf=tight NoSymmetry guess=read
   opt=(tight,modredundant)

Geometry optimization at the 2D-PES

0 1
 C     +0.720614    +0.633650    +0.028319
 C     +1.369521    -0.501597    -0.024276
 H     +1.180958    +1.597603    +0.055171
 H     +2.439816    -0.522230    +0.000933
 H     +0.848445    -1.436877    -0.064670
 O     -0.688629    +0.660208    +0.052721
 O     -1.101122    +1.420248    -1.139515
 H     -1.629982    +0.746340    -1.600799

 2  1  6  7 F
 1  6  7  8 F

