%nproc=1
%mem=1GB
%chk=TMP_CALCS/scangeom_S02_000_220.chk
#p hf 3-21g
   scf=tight NoSymmetry guess=read
   opt=(tight,modredundant)

Geometry optimization at the 2D-PES

0 1
 C     +0.735957    +0.571418    +0.027507
 C     +1.426723    -0.536203    -0.057640
 H     +1.165964    +1.548782    +0.104893
 H     +2.496108    -0.494472    -0.058912
 H     +0.953152    -1.490785    -0.119083
 O     -0.652065    +0.709350    +0.046639
 O     -1.279090    -0.605959    -0.045007
 H     -2.016691    -0.396169    -0.642220

 2  1  6  7 F
 1  6  7  8 F

