%nproc=1
%mem=1GB
%chk=TMP_CALCS/scangeom_S02_020_260.chk
#p hf 3-21g
   scf=tight NoSymmetry guess=read
   opt=(tight,modredundant)

Geometry optimization at the 2D-PES

0 1
 C     +0.739904    +0.570298    +0.063344
 C     +1.430966    -0.535727    -0.048083
 H     +1.173379    +1.548204    +0.094348
 H     +2.499490    -0.493466    -0.081984
 H     +0.970525    -1.500054    -0.051943
 O     -0.651081    +0.705038    +0.060027
 O     -1.295345    -0.561164    +0.382329
 H     -1.551296    -0.884716    -0.500569

 2  1  6  7 F
 1  6  7  8 F

