%nproc=1
%mem=1GB
%chk=TMP_CALCS/scangeom_S02_100_050.chk
#p hf 3-21g
   scf=tight NoSymmetry guess=read
   opt=(tight,modredundant)

Geometry optimization at the 2D-PES

0 1
 C     +0.744928    +0.622990    +0.044317
 C     +1.384598    -0.516389    -0.003228
 H     +1.225660    +1.580232    +0.095952
 H     +2.455187    -0.547657    -0.008665
 H     +0.847998    -1.441871    -0.050520
 O     -0.664882    +0.676510    -0.013463
 O     -1.186953    +0.845342    +1.353149
 H     -0.665245    +1.592846    +1.700569

 2  1  6  7 F
 1  6  7  8 F

