%nproc=1
%mem=1GB
%chk=TMP_CALCS/scangeom_S02_030_230.chk
#p hf 3-21g
   scf=tight NoSymmetry guess=read
   opt=(tight,modredundant)

Geometry optimization at the 2D-PES

0 1
 C     +0.734162    +0.578713    +0.059966
 C     +1.412870    -0.535404    -0.039016
 H     +1.175895    +1.552991    +0.092706
 H     +2.482589    -0.508954    -0.058893
 H     +0.928840    -1.487698    -0.056071
 O     -0.657667    +0.709317    +0.045680
 O     -1.258963    -0.502251    +0.607090
 H     -1.908299    -0.698678    -0.089126

 2  1  6  7 F
 1  6  7  8 F

