%nproc=1
%mem=1GB
%chk=TMP_CALCS/scangeom_S02_020_270.chk
#p hf 3-21g
   scf=tight NoSymmetry guess=read
   opt=(tight,modredundant)

Geometry optimization at the 2D-PES

0 1
 C     +0.740642    +0.568600    +0.066292
 C     +1.434784    -0.535729    -0.048007
 H     +1.174195    +1.546524    +0.093598
 H     +2.502916    -0.488989    -0.085927
 H     +0.983300    -1.504602    -0.046946
 O     -0.649483    +0.704061    +0.062330
 O     -1.304710    -0.557504    +0.378863
 H     -1.416865    -0.959299    -0.502438

 2  1  6  7 F
 1  6  7  8 F

