%nproc=1
%mem=1GB
%chk=TMP_CALCS/scangeom_S02_160_060.chk
#p hf 3-21g
   scf=tight NoSymmetry guess=read
   opt=(tight,modredundant)

Geometry optimization at the 2D-PES

0 1
 C     +0.747802    +0.635135    +0.052468
 C     +1.376257    -0.510976    -0.003267
 H     +1.234831    +1.586496    +0.108491
 H     +2.445798    -0.543117    -0.023182
 H     +0.839320    -1.436708    -0.035956
 O     -0.654891    +0.688638    +0.000324
 O     -1.109531    +1.966316    +0.545734
 H     -0.682976    +2.613153    -0.046286

 2  1  6  7 F
 1  6  7  8 F

