%nproc=1
%mem=1GB
%chk=TMP_CALCS/scangeom_S02_050_200.chk
#p hf 3-21g
   scf=tight NoSymmetry guess=read
   opt=(tight,modredundant)

Geometry optimization at the 2D-PES

0 1
 C     +0.732144    +0.598058    +0.057641
 C     +1.393601    -0.527412    -0.025309
 H     +1.190872    +1.564161    +0.094753
 H     +2.464134    -0.525803    -0.029160
 H     +0.888948    -1.470412    -0.049931
 O     -0.666151    +0.704357    +0.021525
 O     -1.219550    -0.254716    +0.992556
 H     -2.123326    -0.319958    +0.639653

 2  1  6  7 F
 1  6  7  8 F

