%nproc=1
%mem=1GB
%chk=TMP_CALCS/scangeom_S02_050_300.chk
#p hf 3-21g
   scf=tight NoSymmetry guess=read
   opt=(tight,modredundant)

Geometry optimization at the 2D-PES

0 1
 C     +0.742642    +0.585046    +0.062094
 C     +1.426268    -0.527909    -0.030141
 H     +1.197990    +1.552590    +0.093028
 H     +2.495856    -0.498701    -0.047508
 H     +0.970775    -1.496962    -0.072619
 O     -0.658718    +0.697107    +0.039878
 O     -1.286926    -0.229282    +0.982894
 H     -0.989504    -1.099262    +0.665102

 2  1  6  7 F
 1  6  7  8 F

