$molecule
0 2
C  -5.2133624653  -0.5817323293   0.0716063550
C  -3.9208577163  -0.3653642231   0.7842756215
C  -2.7234657196  -0.4847274371  -0.1586226776
C  -1.4067286916  -0.2489011556   0.5841707145
C  -0.2072350441  -0.3685719473  -0.3574558461
C   1.1089292685  -0.1327105750   0.3853541574
C   2.3084161422  -0.2523719000  -0.5561809572
C   3.6235534716  -0.0166689057   0.1861615221
C   4.8185306791  -0.1347534507  -0.7463583025
H  -6.1212127696  -0.1314315941   0.4570007066
H  -5.2994424748  -1.3353553028  -0.7031522856
H  -3.8376470521  -1.0990705009   1.5937074359
H  -3.9334312212   0.6298167193   1.2431088845
H  -2.8197233396   0.2430488059  -0.9743845075
H  -2.7102695500  -1.4811213976  -0.6184248843
H  -1.3087993596  -0.9774524008   1.3981987606
H  -1.4164794042   0.7479540847   1.0415516576
H  -0.3052165202   0.3598808520  -1.1715477467
H  -0.1973201203  -1.3653983624  -0.8148705061
H   1.2068964692  -0.8611582319   1.1994628356
H   1.0990300919   0.8641225318   0.8427731222
H   2.2105374373   0.4759364652  -1.3704644617
H   2.3183955049  -1.2491385967  -1.0138136628
H   3.7283249744  -0.7449267208   0.9987919751
H   3.6204650036   0.9802248979   0.6421197372
H   4.7607639358   0.6026064156  -1.5533896657
H   5.7481271068   0.0373839809  -0.1948776860
H   4.8692213632  -1.1321100114  -1.1947402959
$end

$rem
JOBTYPE                   OPT
METHOD                    wB97X-D3
DFT_D                     D3_BJ
BASIS                     def2-TZVP
UNRESTRICTED              TRUE
SCF_ALGORITHM             DIIS
MAX_SCF_CYCLES            150
SCF_CONVERGENCE           8
SYM_IGNORE                TRUE
SYMMETRY                  FALSE
GEOM_OPT_MAX_CYCLES       150
GEOM_OPT_TOL_GRADIENT     100
GEOM_OPT_TOL_DISPLACEMENT 400
GEOM_OPT_TOL_ENERGY       33
XC_GRID			  2
$end

@@@

$molecule
read
$end

$rem
JOBTYPE                   FREQ
METHOD                    wB97X-D3
DFT_D                     D3_BJ
BASIS                     def2-TZVP
UNRESTRICTED              TRUE
SCF_ALGORITHM             DIIS
MAX_SCF_CYCLES            150
SCF_CONVERGENCE           8
SYM_IGNORE                TRUE
SYMMETRY                  FALSE
GEOM_OPT_MAX_CYCLES       150
GEOM_OPT_TOL_GRADIENT     100
GEOM_OPT_TOL_DISPLACEMENT 400
GEOM_OPT_TOL_ENERGY       33
XC_GRID			  2
$end
